\ENCODING=ISO-8859-1
\Problem name: 

Minimize
 obj: x1 + x2 + x3 + x4 + x5 + x6 + x7 + x8 + x9 + x10 + x11 + x12 + 2 x13
      + 2 x14 + 2 x15 + 2 x16 + 2 x17 + 2 x18 + 2 x19 + 2 x20 + 2 x21 + 2 x22
      + 2 x23 + 3 x24 + 3 x25 + 3 x26 + 3 x27 + 3 x28 + 3 x29 + 3 x30 + 3 x31
      + 3 x32 + 3 x33 + 3 x34 + 3 x35 + 3 x36 + 4 x37 + 4 x38 + 4 x39 + 4 x40
      + 4 x41 + 4 x42 + 4 x43 + 4 x44 + 5 x45 + 5 x46 + 5 x47 + 5 x48 + 6 x49
      + 6 x50 + 6 x51 + 6 x52 + 6 x53 + 6 x54 + 6 x55 + 6 x56 + 6 x57 + 6 x58
      + 7 x59 + 7 x60 + 7 x61 + 7 x62 + 7 x63 + 7 x64 + 7 x65 + 7 x66 + 7 x67
      + 7 x68 + 7 x69 + 7 x70 + 8 x71 + 8 x72 + 8 x73 + 8 x74 + 8 x75 + 9 x76
      + 9 x77 + 9 x78 + 9 x79 + 9 x80 + 9 x81 + 10 x82 + 10 x83 + 10 x84
      + 10 x85 + 10 x86 + 10 x87 + 11 x88 + 11 x89 + 11 x90 + 11 x91 + 11 x92
      + 11 x93 + 11 x94 + 12 x95 + 12 x96 + 12 x97 + 12 x98 + 12 x99 + 12 x100
      + 13 x101 + 13 x102 + 13 x103 + 13 x104 + 13 x105 + 14 x106 + 14 x107
      + 14 x108 + 14 x109 + 14 x110 + 14 x111 + 15 x112 + 15 x113 + 15 x114
      + 16 x115 + 16 x116 + 16 x117 + 16 x118 + 16 x119 + 17 x120 + 17 x121
      + 17 x122 + 17 x123 + 17 x124 + 18 x125 + 18 x126 + 18 x127 + 18 x128
      + 18 x129 + 18 x130 + 19 x131 + 20 x132 + 20 x133 + 21 x134 + 22 x135
      + 22 x136 + 22 x137 + 23 x138 + 23 x139 + 23 x140 + 24 x141 + 24 x142
      + 24 x143 + 25 x144 + 25 x145 + 25 x146 + 25 x147 + 25 x148 + 25 x149
      + 26 x150 + 26 x151 + 27 x152 + 27 x153 + 27 x154 + 27 x155 + 27 x156
      + 27 x157 + 28 x158 + 29 x159 + 30 x160 + 30 x161 + 30 x162 + 32 x163
      + 33 x164 + 33 x165 + 38 x166 + 39 x167 + 42 x168 + 42 x169 + 43 x170
      + 45 x171 + 45 x172 + 45 x173 + 46 x174 + 46 x175 + 48 x176 + 52 x177
      + 57 x178 + 63 x179 + 67 x180 + 75 x181 + 89 x182
Subject To
 c1:   x11 + x103 + x180 >= 1
 c2:   x30 + x55 + x82 + x92 + x104 + x115 + x123 + x128 + x138 + x149 >= 1
 c3:   x7 + x73 + x113 + x171 + x180 >= 1
 c4:   x8 + x72 + x173 + x178 >= 1
 c5:   x6 + x159 >= 1
 c6:   x14 + x22 + x53 + x68 + x112 + x122 + x152 + x160 >= 1
 c7:   x75 + x181 >= 1
 c8:   x19 + x27 + x84 + x104 + x106 + x108 + x129 >= 1
 c9:   x54 + x104 + x116 >= 1
 c10:  x3 + x126 >= 1
 c11:  x14 + x52 + x60 + x87 + x95 >= 1
 c12:  x37 + x39 + x86 + x119 >= 1
 c13:  x20 + x26 + x64 + x108 + x134 + x145 + x176 >= 1
 c14:  x9 >= 1
 c15:  x2 + x178 + x179 >= 1
 c16:  x37 + x44 + x85 >= 1
 c17:  x24 + x50 + x140 >= 1
 c18:  x60 + x83 + x84 + x95 + x132 + x147 >= 1
 c19:  x14 + x125 >= 1
 c20:  x13 + x51 >= 1
 c21:  x2 + x20 + x89 + x119 + x144 + x178 >= 1
 c22:  x72 + x106 + x125 + x135 + x159 + x165 + x178 >= 1
 c23:  x19 + x82 >= 1
 c24:  x50 + x146 >= 1
 c25:  x26 + x37 + x77 + x94 + x122 >= 1
 c26:  x13 + x93 + x134 + x158 >= 1
 c27:  x8 + x88 + x107 + x116 >= 1
 c28:  x60 + x62 + x163 >= 1
 c29:  x42 + x58 + x77 + x101 + x136 + x176 >= 1
 c30:  x34 + x141 + x177 >= 1
 c31:  x3 + x132 >= 1
 c32:  x37 + x40 + x53 + x55 + x106 + x172 + x180 >= 1
 c33:  x94 + x142 >= 1
 c34:  x24 + x107 + x166 >= 1
 c35:  x74 + x108 + x124 + x139 + x154 + x156 >= 1
 c36:  x71 + x73 + x93 + x96 + x172 >= 1
 c37:  x37 + x54 + x112 + x116 + x139 >= 1
 c38:  x37 + x83 >= 1
 c39:  x55 + x82 >= 1
 c40:  x72 + x85 + x105 + x109 + x117 + x136 + x164 + x179 >= 1
 c41:  x60 + x76 + x98 >= 1
 c42:  x28 + x68 + x120 + x122 + x140 + x177 >= 1
 c43:  x12 + x85 + x125 + x135 + x171 >= 1
 c44:  x71 + x103 + x138 + x144 >= 1
 c45:  x63 + x83 + x112 + x181 >= 1
 c46:  x97 + x172 >= 1
 c47:  x16 + x121 + x177 >= 1
 c48:  x57 + x65 + x102 + x170 + x179 >= 1
 c49:  x81 + x123 + x127 + x134 + x138 + x154 >= 1
 c50:  x22 >= 1
 c51:  x18 + x42 + x47 + x85 + x174 >= 1
 c52:  x16 + x141 + x182 >= 1
 c53:  x90 + x128 + x132 + x139 >= 1
 c54:  x14 + x120 + x143 >= 1
 c55:  x79 + x90 + x118 + x174 + x180 >= 1
 c56:  x133 + x160 + x161 + x162 + x168 + x171 + x174 + x175 >= 1
 c57:  x48 + x112 + x131 + x155 + x170 >= 1
 c58:  x51 + x52 + x142 + x146 + x152 + x158 + x164 >= 1
 c59:  x1 + x26 + x94 + x117 >= 1
 c60:  x84 + x107 + x124 + x143 + x148 + x163 + x180 >= 1
 c61:  x11 + x127 + x128 >= 1
 c62:  x89 + x114 + x144 + x157 + x179 >= 1
 c63:  x76 + x78 + x82 + x86 + x152 >= 1
 c64:  x5 + x83 >= 1
 c65:  x1 + x41 + x64 + x88 + x136 >= 1
 c66:  x29 + x37 + x49 + x54 + x71 + x141 >= 1
 c67:  x95 + x114 + x152 + x156 + x157 + x182 >= 1
 c68:  x109 + x168 + x181 >= 1
 c69:  x17 >= 1
 c70:  x47 + x95 + x156 >= 1
 c71:  x10 + x52 + x145 >= 1
 c72:  x15 + x43 + x76 + x101 + x155 >= 1
 c73:  x36 + x82 >= 1
 c74:  x149 + x155 + x158 + x171 + x177 >= 1
 c75:  x1 + x61 + x78 + x107 + x124 + x160 >= 1
 c76:  x31 + x82 + x120 + x136 + x153 + x165 >= 1
 c77:  x35 + x45 + x95 + x126 + x131 + x154 >= 1
 c78:  x28 + x80 + x138 + x146 + x153 + x160 + x164 + x171 >= 1
 c79:  x119 + x147 + x148 + x159 >= 1
 c80:  x31 + x66 + x149 >= 1
 c81:  x54 + x67 + x86 + x117 + x137 >= 1
 c82:  x21 + x149 + x157 >= 1
 c83:  x13 + x59 + x76 + x144 + x155 >= 1
 c84:  x23 + x26 + x160 >= 1
 c85:  x7 + x118 >= 1
 c86:  x8 + x13 + x32 + x60 + x63 + x83 >= 1
 c87:  x130 + x169 >= 1
 c88:  x17 + x45 + x79 >= 1
 c89:  x63 + x65 + x115 + x153 >= 1
 c90:  x99 >= 1
 c91:  x39 + x116 + x142 + x143 >= 1
 c92:  x29 + x59 + x68 + x91 + x112 + x131 + x164 + x178 >= 1
 c93:  x151 + x169 + x176 + x182 >= 1
 c94:  x49 + x61 + x62 + x66 + x138 + x179 >= 1
 c95:  x4 + x5 + x45 >= 1
 c96:  x88 + x101 + x118 + x127 + x166 >= 1
 c97:  x53 + x98 >= 1
 c98:  x50 + x99 + x142 + x160 + x179 >= 1
 c99:  x45 + x125 + x173 >= 1
 c100: x90 + x113 + x135 + x172 >= 1
 c101: x46 + x80 + x135 + x144 + x170 >= 1
 c102: x2 + x18 + x48 + x82 + x158 >= 1
 c103: x25 + x43 + x151 >= 1
 c104: x57 + x59 >= 1
 c105: x7 + x15 + x25 + x95 + x102 + x181 >= 1
 c106: x9 + x172 >= 1
 c107: x18 + x88 + x164 >= 1
 c108: x5 + x35 + x159 >= 1
 c109: x32 + x41 + x98 + x109 + x126 + x144 + x150 >= 1
 c110: x87 + x100 + x110 + x150 + x178 >= 1
 c111: x10 + x42 + x56 + x170 >= 1
 c112: x21 + x25 + x46 + x66 + x89 + x99 + x108 + x115 + x117 + x134 + x136
       + x139 + x151 + x154 >= 1
 c113: x38 + x51 + x127 + x179 >= 1
 c114: x15 + x83 + x115 >= 1
 c115: x40 + x129 + x147 >= 1
 c116: x9 + x33 + x40 + x71 + x122 + x147 + x173 >= 1
 c117: x88 + x128 + x160 + x167 >= 1
 c118: x24 + x49 + x138 >= 1
 c119: x14 + x51 + x53 + x77 >= 1
 c120: x11 >= 1
 c121: x26 + x61 + x159 + x170 >= 1
 c122: x28 + x38 + x50 + x58 + x133 + x150 >= 1
 c123: x67 + x79 + x164 >= 1
 c124: x47 + x52 + x105 + x141 + x182 >= 1
 c125: x91 + x110 + x141 >= 1
 c126: x9 + x17 + x46 + x96 + x159 >= 1
 c127: x5 + x106 >= 1
 c128: x3 + x97 >= 1
 c129: x102 + x120 + x137 + x146 + x148 + x173 >= 1
 c130: x6 + x133 >= 1
 c131: x57 + x115 >= 1
 c132: x25 + x92 + x107 + x123 >= 1
 c133: x29 + x132 + x135 + x145 + x147 + x181 >= 1
 c134: x13 + x22 + x140 + x165 >= 1
 c135: x31 + x74 >= 1
 c136: x41 + x50 + x148 + x177 >= 1
 c137: x131 + x138 + x172 >= 1
 c138: x154 + x161 + x166 + x167 + x170 + x180 + x181 + x182 >= 1
 c139: x3 + x62 >= 1
 c140: x121 + x125 + x142 + x143 + x165 + x171 >= 1
 c141: x4 + x47 + x110 >= 1
 c142: x4 + x10 + x109 + x135 >= 1
 c143: x2 + x100 + x171 >= 1
 c144: x6 + x17 + x50 + x61 + x152 + x172 >= 1
 c145: x39 + x179 >= 1
 c146: x8 + x155 + x180 + x181 >= 1
 c147: x21 + x27 + x121 >= 1
 c148: x16 >= 1
 c149: x1 + x4 + x98 + x108 + x109 >= 1
 c150: x49 + x78 + x161 + x171 + x181 >= 1
 c151: x27 + x33 + x40 + x49 + x150 + x169 >= 1
 c152: x129 + x134 + x140 + x182 >= 1
 c153: x5 + x30 + x85 + x125 + x150 >= 1
 c154: x45 + x91 + x120 + x150 >= 1
 c155: x29 + x59 + x69 + x126 >= 1
 c156: x27 + x87 + x151 >= 1
 c157: x38 + x59 + x72 + x73 + x130 >= 1
 c158: x28 + x114 >= 1
 c159: x49 + x180 >= 1
 c160: x24 + x28 + x131 + x159 >= 1
 c161: x60 + x92 + x100 >= 1
 c162: x34 + x46 + x64 + x93 + x102 + x123 >= 1
 c163: x3 + x121 + x141 >= 1
 c164: x39 + x77 + x101 + x105 + x150 + x174 + x176 >= 1
 c165: x84 + x88 + x101 + x104 + x122 + x126 + x130 + x137 + x142 + x178 >= 1
 c166: x16 + x47 + x48 + x64 + x153 >= 1
 c167: x153 + x173 + x175 + x176 + x178 + x180 + x181 >= 1
 c168: x36 + x48 + x143 + x176 >= 1
 c169: x15 + x137 >= 1
 c170: x30 + x49 + x96 + x103 + x114 + x161 + x167 >= 1
 c171: x138 + x145 + x177 >= 1
 c172: x27 + x59 + x84 + x117 + x166 + x174 >= 1
 c173: x25 + x31 + x80 + x113 >= 1
 c174: x19 + x177 >= 1
 c175: x45 + x78 + x96 + x151 >= 1
 c176: x23 + x33 + x71 + x101 + x112 + x121 + x151 + x164 >= 1
 c177: x1 + x7 + x20 + x62 + x63 + x96 + x113 + x171 >= 1
 c178: x2 + x38 + x179 >= 1
 c179: x24 >= 1
 c180: x13 + x90 + x111 >= 1
 c181: x4 + x62 + x84 + x179 >= 1
 c182: x76 >= 1
 c183: x56 + x97 + x120 + x136 + x159 >= 1
 c184: x46 + x61 + x69 + x86 + x146 + x159 + x176 >= 1
 c185: x44 >= 1
 c186: x111 + x134 + x156 >= 1
 c187: x52 + x89 + x163 + x168 >= 1
 c188: x46 >= 1
 c189: x50 + x116 + x120 >= 1
 c190: x30 + x63 + x106 + x131 + x134 >= 1
 c191: x113 + x152 + x179 >= 1
 c192: x51 + x102 + x161 + x172 >= 1
 c193: x19 + x162 >= 1
 c194: x32 + x67 + x97 + x144 >= 1
 c195: x70 + x75 + x129 + x164 >= 1
 c196: x18 + x24 + x86 + x174 + x179 + x181 >= 1
 c197: x15 + x59 + x65 + x112 + x144 + x145 + x177 >= 1
 c198: x88 + x157 + x162 + x163 + x165 + x168 + x174 >= 1
 c199: x61 + x81 + x103 >= 1
 c200: x1 + x6 + x55 + x56 + x180 >= 1
Bounds
 0 <= x1 <= 1
 0 <= x2 <= 1
 0 <= x3 <= 1
 0 <= x4 <= 1
 0 <= x5 <= 1
 0 <= x6 <= 1
 0 <= x7 <= 1
 0 <= x8 <= 1
 0 <= x9 <= 1
 0 <= x10 <= 1
 0 <= x11 <= 1
 0 <= x12 <= 1
 0 <= x13 <= 1
 0 <= x14 <= 1
 0 <= x15 <= 1
 0 <= x16 <= 1
 0 <= x17 <= 1
 0 <= x18 <= 1
 0 <= x19 <= 1
 0 <= x20 <= 1
 0 <= x21 <= 1
 0 <= x22 <= 1
 0 <= x23 <= 1
 0 <= x24 <= 1
 0 <= x25 <= 1
 0 <= x26 <= 1
 0 <= x27 <= 1
 0 <= x28 <= 1
 0 <= x29 <= 1
 0 <= x30 <= 1
 0 <= x31 <= 1
 0 <= x32 <= 1
 0 <= x33 <= 1
 0 <= x34 <= 1
 0 <= x35 <= 1
 0 <= x36 <= 1
 0 <= x37 <= 1
 0 <= x38 <= 1
 0 <= x39 <= 1
 0 <= x40 <= 1
 0 <= x41 <= 1
 0 <= x42 <= 1
 0 <= x43 <= 1
 0 <= x44 <= 1
 0 <= x45 <= 1
 0 <= x46 <= 1
 0 <= x47 <= 1
 0 <= x48 <= 1
 0 <= x49 <= 1
 0 <= x50 <= 1
 0 <= x51 <= 1
 0 <= x52 <= 1
 0 <= x53 <= 1
 0 <= x54 <= 1
 0 <= x55 <= 1
 0 <= x56 <= 1
 0 <= x57 <= 1
 0 <= x58 <= 1
 0 <= x59 <= 1
 0 <= x60 <= 1
 0 <= x61 <= 1
 0 <= x62 <= 1
 0 <= x63 <= 1
 0 <= x64 <= 1
 0 <= x65 <= 1
 0 <= x66 <= 1
 0 <= x67 <= 1
 0 <= x68 <= 1
 0 <= x69 <= 1
 0 <= x70 <= 1
 0 <= x71 <= 1
 0 <= x72 <= 1
 0 <= x73 <= 1
 0 <= x74 <= 1
 0 <= x75 <= 1
 0 <= x76 <= 1
 0 <= x77 <= 1
 0 <= x78 <= 1
 0 <= x79 <= 1
 0 <= x80 <= 1
 0 <= x81 <= 1
 0 <= x82 <= 1
 0 <= x83 <= 1
 0 <= x84 <= 1
 0 <= x85 <= 1
 0 <= x86 <= 1
 0 <= x87 <= 1
 0 <= x88 <= 1
 0 <= x89 <= 1
 0 <= x90 <= 1
 0 <= x91 <= 1
 0 <= x92 <= 1
 0 <= x93 <= 1
 0 <= x94 <= 1
 0 <= x95 <= 1
 0 <= x96 <= 1
 0 <= x97 <= 1
 0 <= x98 <= 1
 0 <= x99 <= 1
 0 <= x100 <= 1
 0 <= x101 <= 1
 0 <= x102 <= 1
 0 <= x103 <= 1
 0 <= x104 <= 1
 0 <= x105 <= 1
 0 <= x106 <= 1
 0 <= x107 <= 1
 0 <= x108 <= 1
 0 <= x109 <= 1
 0 <= x110 <= 1
 0 <= x111 <= 1
 0 <= x112 <= 1
 0 <= x113 <= 1
 0 <= x114 <= 1
 0 <= x115 <= 1
 0 <= x116 <= 1
 0 <= x117 <= 1
 0 <= x118 <= 1
 0 <= x119 <= 1
 0 <= x120 <= 1
 0 <= x121 <= 1
 0 <= x122 <= 1
 0 <= x123 <= 1
 0 <= x124 <= 1
 0 <= x125 <= 1
 0 <= x126 <= 1
 0 <= x127 <= 1
 0 <= x128 <= 1
 0 <= x129 <= 1
 0 <= x130 <= 1
 0 <= x131 <= 1
 0 <= x132 <= 1
 0 <= x133 <= 1
 0 <= x134 <= 1
 0 <= x135 <= 1
 0 <= x136 <= 1
 0 <= x137 <= 1
 0 <= x138 <= 1
 0 <= x139 <= 1
 0 <= x140 <= 1
 0 <= x141 <= 1
 0 <= x142 <= 1
 0 <= x143 <= 1
 0 <= x144 <= 1
 0 <= x145 <= 1
 0 <= x146 <= 1
 0 <= x147 <= 1
 0 <= x148 <= 1
 0 <= x149 <= 1
 0 <= x150 <= 1
 0 <= x151 <= 1
 0 <= x152 <= 1
 0 <= x153 <= 1
 0 <= x154 <= 1
 0 <= x155 <= 1
 0 <= x156 <= 1
 0 <= x157 <= 1
 0 <= x158 <= 1
 0 <= x159 <= 1
 0 <= x160 <= 1
 0 <= x161 <= 1
 0 <= x162 <= 1
 0 <= x163 <= 1
 0 <= x164 <= 1
 0 <= x165 <= 1
 0 <= x166 <= 1
 0 <= x167 <= 1
 0 <= x168 <= 1
 0 <= x169 <= 1
 0 <= x170 <= 1
 0 <= x171 <= 1
 0 <= x172 <= 1
 0 <= x173 <= 1
 0 <= x174 <= 1
 0 <= x175 <= 1
 0 <= x176 <= 1
 0 <= x177 <= 1
 0 <= x178 <= 1
 0 <= x179 <= 1
 0 <= x180 <= 1
 0 <= x181 <= 1
 0 <= x182 <= 1
Binaries
 x1  x2  x3  x4  x5  x6  x7  x8  x9  x10  x11  x12  x13  x14  x15  x16  x17 
 x18  x19  x20  x21  x22  x23  x24  x25  x26  x27  x28  x29  x30  x31  x32 
 x33  x34  x35  x36  x37  x38  x39  x40  x41  x42  x43  x44  x45  x46  x47 
 x48  x49  x50  x51  x52  x53  x54  x55  x56  x57  x58  x59  x60  x61  x62 
 x63  x64  x65  x66  x67  x68  x69  x70  x71  x72  x73  x74  x75  x76  x77 
 x78  x79  x80  x81  x82  x83  x84  x85  x86  x87  x88  x89  x90  x91  x92 
 x93  x94  x95  x96  x97  x98  x99  x100  x101  x102  x103  x104  x105  x106 
 x107  x108  x109  x110  x111  x112  x113  x114  x115  x116  x117  x118  x119 
 x120  x121  x122  x123  x124  x125  x126  x127  x128  x129  x130  x131  x132 
 x133  x134  x135  x136  x137  x138  x139  x140  x141  x142  x143  x144  x145 
 x146  x147  x148  x149  x150  x151  x152  x153  x154  x155  x156  x157  x158 
 x159  x160  x161  x162  x163  x164  x165  x166  x167  x168  x169  x170  x171 
 x172  x173  x174  x175  x176  x177  x178  x179  x180  x181  x182 
End
